Maximize

  x_0_0 + x_0_1 + x_1_0 + x_1_1 + x_2_0 + x_2_1 + x_3_0 + x_3_1 + x_4_0 + x_4_1 + x_5_0 + x_5_1 + x_6_0 + x_6_1 + x_7_0 + x_7_1 + x_8_0 + x_8_1 + x_9_0 + x_9_1
Subject To


   a0: 15,00 x_0_0 <= 15,00
   a1: 15,00 x_0_1 <= 18,00
   a2: 20,00 x_1_0 <= 15,00
   a3: 20,00 x_1_1 <= 18,00
   a4: 16,50 x_2_0 <= 15,00
   a5: 16,50 x_2_1 <= 18,00
   a6: 16,00 x_3_0 <= 15,00
   a7: 16,00 x_3_1 <= 18,00
   a8: 17,50 x_4_0 <= 15,00
   a9: 17,50 x_4_1 <= 18,00
   a10: 18,00 x_5_0 <= 15,00
   a11: 18,00 x_5_1 <= 18,00
   a12: 10,00 x_6_0 <= 15,00
   a13: 10,00 x_6_1 <= 18,00
   a14: 11,50 x_7_0 <= 15,00
   a15: 11,50 x_7_1 <= 18,00
   a16: 12,00 x_8_0 <= 15,00
   a17: 12,00 x_8_1 <= 18,00
   a18: 17,00 x_9_0 <= 15,00
   a19: 17,00 x_9_1 <= 18,00

   b0: 2,50 x_0_0 + 1,50 x_1_0 + 0,30 x_2_0 + 1,20 x_3_0 + 0,30 x_4_0 + 3,00 x_5_0 + 4,00 x_6_0 + 0,60 x_7_0 + 4,50 x_8_0 + 1,00 x_9_0 <= 7,00
   b1: 2,50 x_0_1 + 1,50 x_1_1 + 0,30 x_2_1 + 1,20 x_3_1 + 0,30 x_4_1 + 3,00 x_5_1 + 4,00 x_6_1 + 0,60 x_7_1 + 4,50 x_8_1 + 1,00 x_9_1 <= 7,00

   c0: x_0_0 + x_0_1 + x_0_2 = 1
   c1: x_1_0 + x_1_1 + x_1_2 = 1
   c2: x_2_0 + x_2_1 + x_2_2 = 1
   c3: x_3_0 + x_3_1 + x_3_2 = 1
   c4: x_4_0 + x_4_1 + x_4_2 = 1
   c5: x_5_0 + x_5_1 + x_5_2 = 1
   c6: x_6_0 + x_6_1 + x_6_2 = 1
   c7: x_7_0 + x_7_1 + x_7_2 = 1
   c8: x_8_0 + x_8_1 + x_8_2 = 1
   c9: x_9_0 + x_9_1 + x_9_2 = 1

Binary

x_0_0 x_0_1 x_0_2 x_1_0 x_1_1 x_1_2 x_2_0 x_2_1 x_2_2 x_3_0 x_3_1 x_3_2 x_4_0 x_4_1 x_4_2 x_5_0 x_5_1 x_5_2 x_6_0 x_6_1 x_6_2 x_7_0 x_7_1 x_7_2 x_8_0 x_8_1 x_8_2 x_9_0 x_9_1 x_9_2
End


